
Gurobi 6.0.4 (win64) logging started 06/21/15 19:09:27

Read LP format model from file C:\MT\repository\VRPTWMS\instances\mip\fuel\N6-C_DV100-C_SV30_F6_7_No_1.lp
Reading time = 0.01 seconds
(null): 253 rows, 128 columns, 957 nonzeros
Optimize a model with 253 rows, 128 columns and 957 nonzeros
Model has 216 quadratic constraints
Coefficient statistics:
  Matrix range    [1e+00, 1e+06]
  Objective range [3e+04, 1e+07]
  Bounds range    [1e+00, 1e+06]
  RHS range       [1e+00, 1e+06]
Presolve removed 49 rows and 24 columns
Presolve time: 0.06s
Presolved: 470 rows, 237 columns, 2371 nonzeros
Variable types: 133 continuous, 104 integer (79 binary)
Found heuristic solution: objective 2.127950e+07

Root relaxation: objective 1.628939e+07, 73 iterations, 0.00 seconds

    Nodes    |    Current Node    |     Objective Bounds      |     Work
 Expl Unexpl |  Obj  Depth IntInf | Incumbent    BestBd   Gap | It/Node Time

     0     0 1.6289e+07    0   23 2.1280e+07 1.6289e+07  23.5%     -    0s
     0     0     cutoff    0      2.1280e+07 2.1279e+07  0.00%     -    0s

Cutting planes:
  Learned: 1
  Gomory: 1
  Implied bound: 2
  Clique: 4
  MIR: 1

Explored 0 nodes (103 simplex iterations) in 0.08 seconds
Thread count was 2 (of 4 available processors)

Optimal solution found (tolerance 1.00e-04)
Best objective 2.127950000000e+07, best bound 2.127950000000e+07, gap 0.0%
k_c1	90000.0
k_c2	919999.0
k_c3	1000000.0
k_c4	70000.0
k_c5	50000.0
k_c6	869998.0
k_dN	-0.0
o_1	-0.0
o_2	-0.0
o_3	-0.0
o_4	-0.0
o_5	-0.0
o_6	-0.0
p_1	-0.0
p_2	-0.0
p_3	-0.0
p_4	-0.0
p_5	-0.0
p_6	-0.0
phi_c1	38920.0
phi_c2	41924.0
phi_c3	45268.999999999985
phi_c4	10089.0
phi_c5	2007.0
phi_c6	4014.0
phi_d0	60000.0
phi_dN	-0.0
tauD_c1	587600.0
tauD_c2	450000.0
tauD_c3	100000.0
tauD_c4	699800.0
tauD_c5	800000.0
tauD_c6	600000.0
tauD_d0	-0.0
tauD_dN	1000000.0
tauS_c1	826050.0
tauS_c2	15050.0
tauS_c3	848275.0
tauS_c4	-0.0
tauS_c5	-0.0
tauS_c6	-0.0
tauS_d0	-0.0
tauS_dN	241350.0
x_c1_c4	1.0
x_c2_c6	1.0
x_c3_c1	1.0
x_c4_c5	1.0
x_c5_dN	1.0
x_c6_dN	1.0
x_d0_c2	1.0
x_d0_c3	1.0
